
Gurobi 12.0.2 (win64) logging started Mon Nov  3 17:48:09 2025

Set parameter LogFile to value "resultados DATA_1_n30m05b2d2\instancia_8_log.txt"
Set parameter TimeLimit to value 1800
Gurobi Optimizer version 12.0.2 build v12.0.2rc0 (win64 - Windows 10.0 (19045.2))

CPU model: Intel(R) Core(TM) i5-6300U CPU @ 2.40GHz, instruction set [SSE2|AVX|AVX2]
Thread count: 2 physical cores, 4 logical processors, using up to 4 threads

Non-default parameters:
TimeLimit  1800

Optimize a model with 17 rows, 22 columns and 134 nonzeros
Model fingerprint: 0x3114803c
Variable types: 0 continuous, 22 integer (22 binary)
Coefficient statistics:
  Matrix range     [1e+00, 1e+00]
  Objective range  [1e-01, 4e-01]
  Bounds range     [1e+00, 1e+00]
  RHS range        [1e+00, 2e+00]
Found heuristic solution: objective 0.3406667
Presolve removed 5 rows and 11 columns
Presolve time: 0.00s
Presolved: 12 rows, 11 columns, 49 nonzeros
Found heuristic solution: objective 0.1140000
Variable types: 0 continuous, 11 integer (11 binary)
Found heuristic solution: objective 0.3420000

Root relaxation: objective 4.292593e-01, 8 iterations, 0.00 seconds (0.00 work units)

    Nodes    |    Current Node    |     Objective Bounds      |     Work
 Expl Unexpl |  Obj  Depth IntInf | Incumbent    BestBd   Gap | It/Node Time

*    0     0               0       0.4292593    0.42926  0.00%     -    0s

Explored 1 nodes (8 simplex iterations) in 0.02 seconds (0.00 work units)
Thread count was 4 (of 4 available processors)

Solution count 4: 0.429259 0.342 0.340667 0.114 
No other solutions better than 0.429259

Optimal solution found (tolerance 1.00e-04)
Best objective 4.292592592593e-01, best bound 4.292592592593e-01, gap 0.0000%
